(set-logic UFSLIA)
(declare-fun l1 () String)
(declare-fun l2 () String)
(declare-fun l3 () String)
(declare-fun l4 () String)
(assert (= (str.++ l1 l4) (str.++ l2 l4)))
(assert (not (= (str.++ l1 l3) (str.++ l2 l3))))
(check-sat)
(exit)